Instance name: /mnt/c/Users/ORG/CLionProjects/uMV-FSTSP/Murray_Chu_2015_test_data/FSTSP/FSTSP_10_customer_problems/20140810T123440v10

drone speed: 0.6 miles/minute
uav non-eligible customer: 4 5 
Printing number of nodes: 11

Gurobi Optimizer version 11.0.0 build v11.0.0rc2 (linux64 - "Ubuntu 22.04.3 LTS")

CPU model: 13th Gen Intel(R) Core(TM) i5-13500, instruction set [SSE2|AVX|AVX2]
Thread count: 10 physical cores, 20 logical processors, using up to 20 threads

Optimize a model with 44651 rows, 1957 columns and 1837624 nonzeros
Model fingerprint: 0x327508a5
Variable types: 11 continuous, 1946 integer (1814 binary)
Coefficient statistics:
  Matrix range     [6e-01, 2e+01]
  Objective range  [1e+00, 2e+01]
  Bounds range     [1e+00, 1e+00]
  RHS range        [1e+00, 9e+00]
Found heuristic solution: objective 167.7701055
Presolve removed 26615 rows and 823 columns
Presolve time: 2.78s
Presolved: 18036 rows, 1134 columns, 641505 nonzeros
Variable types: 8 continuous, 1126 integer (1126 binary)
Found heuristic solution: objective 128.5944597
Root relaxation presolved: 18036 rows, 1134 columns, 641505 nonzeros


Root relaxation: objective 4.300664e+01, 1626 iterations, 0.75 seconds (1.43 work units)

    Nodes    |    Current Node    |     Objective Bounds      |     Work
 Expl Unexpl |  Obj  Depth IntInf | Incumbent    BestBd   Gap | It/Node Time

     0     0   43.00664    0   78  128.59446   43.00664  66.6%     -    4s
H    0     0                      50.2640190   43.00664  14.4%     -    4s
H    0     0                      48.1054639   43.00664  10.6%     -    4s
     0     0   43.00664    0   96   48.10546   43.00664  10.6%     -    5s
H    0     0                      47.8310873   43.00664  10.1%     -    6s
     0     0   43.06638    0  128   47.83109   43.06638  10.0%     -    7s
     0     0   43.07644    0  144   47.83109   43.07644  9.94%     -    8s
H    0     0                      45.5828686   43.07644  5.50%     -    8s
     0     0   43.07644    0  152   45.58287   43.07644  5.50%     -    8s
     0     0   43.07644    0  151   45.58287   43.07644  5.50%     -    8s
     0     0   43.07644    0   79   45.58287   43.07644  5.50%     -   10s
     0     0   43.07644    0  129   45.58287   43.07644  5.50%     -   11s
     0     0   43.07644    0  131   45.58287   43.07644  5.50%     -   11s
     0     0   43.07644    0  136   45.58287   43.07644  5.50%     -   11s
     0     0   43.07644    0  147   45.58287   43.07644  5.50%     -   11s
H    0     0                      44.3057665   43.07644  2.77%     -   12s
     0     0   43.07644    0  141   44.30577   43.07644  2.77%     -   12s
     0     0   43.07644    0  143   44.30577   43.07644  2.77%     -   12s
     0     0   43.07644    0  154   44.30577   43.07644  2.77%     -   12s
     0     0   43.07644    0   70   44.30577   43.07644  2.77%     -   12s
H    0     0                      43.0764440   43.07644  0.00%     -   13s

Cutting planes:
  Gomory: 42
  Cover: 3
  MIR: 39
  StrongCG: 3
  GUB cover: 4
  Zero half: 10
  RLT: 6

Explored 1 nodes (9216 simplex iterations) in 13.09 seconds (17.79 work units)
Thread count was 20 (of 20 available processors)

Solution count 8: 43.0764 44.3058 45.5829 ... 167.77

Optimal solution found (tolerance 1.00e-04)
Best objective 4.307644401979e+01, best bound 4.307644401979e+01, gap 0.0000%
Truck arcs: 
0 1 3.05404
1 6 3.41898
4 8 5.54215
5 10 11.4906
6 5 7.0349
8 11 1.22306
10 4 4.31275
Theta:
Theta_2 = 1
Theta_3 = 1
Theta_7 = 1
Theta_9 = 1
Drone arcs:
0 9
2 5
3 11
5 7
6 2
7 10
9 6
10 3
Gamma:
gamma_2_6_5= 1
gamma_3_4_8= 1
gamma_3_8_11= 1
gamma_3_10_4= 1
gamma_7_5_10= 1
gamma_9_0_1= 1
gamma_9_1_6= 1
Sigma:
Sigma_1 = 0
Sigma_2 = 0
Sigma_3 = 0
Sigma_4 = 0
Sigma_5 = 0
Sigma_6 = 0
Sigma_7 = 0
Sigma_8 = 0
Sigma_9 = 0
Sigma_10 = 0
Sigma_11 = 0
middle of 2 sortie are: 
middle of 3 sortie are: 4 8 
middle of 7 sortie are: 
middle of 9 sortie are: 1 
Objective: 43.0764
Number of sorties: 4
